DIMENSION: 16
EDGE_WEIGHT_TYPE: EXPLICIT
EDGE_WEIGHT_FORMAT: FULL_MATRIX
EDGE_WEIGHT_SECTION:
32767 32767 32767 32767 13 32767 84 32767 32767 32767 55 32767 79 32767 32767 32767 
32767 32767 32767 32767 32767 86 32767 32767 32767 32767 32767 32767 32767 32767 32767 32767 
32767 32767 32767 32767 32767 99 59 32767 32767 32767 74 82 32767 32767 32767 32767 
32767 32767 32767 32767 32767 60 32767 32767 24 32767 28 32767 32767 74 83 32767 
13 32767 32767 32767 32767 76 32767 32767 32767 32767 32767 32767 32767 32767 32767 32767 
32767 86 99 60 76 32767 32767 54 32767 32767 32767 32767 32767 32767 32767 73 
84 32767 59 32767 32767 32767 32767 42 74 32767 32767 32767 59 32767 32767 62 
32767 32767 32767 32767 32767 54 42 32767 32767 32767 32767 32767 32767 88 32767 32767 
32767 32767 32767 24 32767 32767 74 32767 32767 32767 52 32767 32767 83 69 32 
32767 32767 32767 32767 32767 32767 32767 32767 32767 32767 32767 31 32767 32767 32767 32767 
55 32767 74 28 32767 32767 32767 32767 52 32767 32767 32767 32767 32767 32767 1 
32767 32767 82 32767 32767 32767 32767 32767 32767 31 32767 32767 56 32767 95 32767 
79 32767 32767 32767 32767 32767 59 32767 32767 32767 32767 56 32767 32767 52 32767 
32767 32767 32767 74 32767 32767 32767 88 83 32767 32767 32767 32767 32767 62 32767 
32767 32767 32767 83 32767 32767 32767 32767 69 32767 32767 95 52 62 32767 52 
32767 32767 32767 32767 32767 73 62 32767 32 32767 1 32767 32767 32767 52 32767 
EOF